NAME: sample_FULL_MATRIX
TYPE: TSP
DIMENSION: 6
EDGE_WEIGHT_TYPE: EXPLICIT
EDGE_WEIGHT_FORMAT: FULL_MATRIX
EDGE_WEIGHT_SECTION
  0 13 13 25 25 36
 13  0 10 12 16 25
 13 10  0 16 12 25
 25 12 16  0 10 13
 25 16 12 10  0 13
 36 25 25 13 13  0
EOF
